xc                 pbe
spin               none
relativistic       atomic_zora scalar

# 3d PBC
#k-point grid
#k_grid	12	12	12
#k_grid	7       7       7
#k_grid	6       6       6
#k_grid	5       5	5
#k_grid	4       4       4

# SCF convergence
occupation_type    gaussian 0.01
mixer              pulay
n_max_pulay        8		# default value 8
charge_mix_param   0.2		# non-metallic conservative value
sc_accuracy_rho    1E-6		# density check
sc_accuracy_eev    1E-3		# eigen value check
#sc_accuracy_etot   1E-5
#sc_accuracy_forces 1E-4
sc_accuracy_forces not_checked
sc_iter_limit	2000

# Relaxation
#relax_unit_cell  full
relax_geometry   bfgs 1.e-3

# Constrained Opti
#relax_unit_cell        fixed_angles

output dipole

################################################################################
#
#  FHI-aims code project
#  Volker Blum, 2017
#
#  Suggested "intermediate" defaults for O atom (to be pasted into control.in file)
#
################################################################################
  species        O
#     global species definitions
    nucleus             8
    mass                15.9994
#
    l_hartree           6
#
    cut_pot             4.0  2.0  1.0
    basis_dep_cutoff    1e-4
#
    radial_base         36 7.0
    radial_multiplier   2
     angular_grids specified
      division   0.1817   50
      division   0.3417  110
      division   0.4949  194
      division   0.6251  302
      division   0.8014  434
#      division   0.8507  590
#      division   0.8762  770
#      division   0.9023  974
#      division   1.2339 1202
#      outer_grid 974
      outer_grid  434
################################################################################
#
#  Definition of "minimal" basis
#
################################################################################
#     valence basis states
    valence      2  s   2.
    valence      2  p   4.
#     ion occupancy
    ion_occ      2  s   1.
    ion_occ      2  p   3.
################################################################################
#
#  Suggested additional basis functions. For production calculations, 
#  uncomment them one after another (the most important basis functions are
#  listed first).
#
#  Constructed for dimers: 1.0 A, 1.208 A, 1.5 A, 2.0 A, 3.0 A
#
################################################################################
#  "First tier" - improvements: -699.05 meV to -159.38 meV
     hydro 2 p 1.8
     hydro 3 d 7.6
     hydro 3 s 6.4
#  "Second tier" - improvements: -49.91 meV to -5.39 meV
     hydro 4 f 11.6
#     hydro 3 p 6.2
#     hydro 3 d 5.6
  for_aux    hydro 5 g 17.6
#     hydro 1 s 0.75
#  "Third tier" - improvements: -2.83 meV to -0.50 meV
#     ionic 2 p auto
#     hydro 4 f 10.8
#     hydro 4 d 4.7
#     hydro 2 s 6.8
#  "Fourth tier" - improvements: -0.40 meV to -0.12 meV
#     hydro 3 p 5
#     hydro 3 s 3.3
#     hydro 5 g 15.6
#     hydro 4 f 17.6
#     hydro 4 d 14
# Further basis functions - -0.08 meV and below
#     hydro 3 s 2.1
#     hydro 4 d 11.6
#     hydro 3 p 16
#     hydro 2 s 17.2
################################################################################
#
#  FHI-aims code project
#  Tong Zhu, Will Huhn and Volker Blum, Duke University 2018
#
#  Suggested "intermediate" defaults for Sr atom (to be pasted into control.in file)
#
#  Rb, Sr, Cs and Ba are very large atoms. This requires uncomfortably large
#  cut_pot radii (the high cut_pot values are especially costly for hybrid DFT
#  calculations, both regarding time and memory). Additionally, since they are
#  relatively heavy elements, high-accuracy basis set convergence actually
#  requires more radial functions than for their light-element counterparts.
#
#  Compared to the "tight" settings, the "intermediate" settings for Sr are
#  reduced in the following way:
#
#  - cut_pot from 6.0 Angstrom to 5.25 Angstrom
#
#  The cut_pot value has a noticeable effect particularly for neutral situations
#  (the Sr dimer is a good example) and we were not comfortable with reducing it more.
#  ("intermediate" still implies high accuracy.) However, a comparison to the "light"
#  settings (which are not crazy) shows that further reductions are possible in many
#  situations, if the cut_pot value for Sr is the bottleneck. (Note that some internal
#  cutoffs in current FHI-aims are set according to the largest atom, and so in principle,
#  even a single Sr atom in a large structure can have a noticeable effect on memory and
#  speed.)
#
################################################################################
  species          Sr
#     global species definitions
    nucleus        38
    mass           87.62
#
    l_hartree      6
#
    cut_pot        5.25  2.0  1.0
    basis_dep_cutoff    1e-4
#
    radial_base    57  7.0
    radial_multiplier  2
    angular_grids specified
      division   0.6981  110
      division   0.9394  194
      division   1.1230  302
      division   1.2482  434
#      division   1.3391  590
#      division   1.4365  770
#      division   7.0005  974
#      outer_grid  974
      outer_grid  434
################################################################################
#
#  Definition of "minimal" basis
#
################################################################################
#     valence basis states
    valence      5  s   2.
    valence      4  p   6.
    valence      3  d  10.
#     ion occupancy
    ion_occ      5  s   1.
    ion_occ      4  p   6.
    ion_occ      3  d  10.
################################################################################
#
#  Suggested additional basis functions. For production calculations, 
#  uncomment them one after another (the most important basis functions are
#  listed first).
#
#  Constructed for dimers: 2.75, 3.50, 4.40, 5.00 A
#
################################################################################
#  "First tier" - improvements: -289.57 meV to -14.02 meV
     ionic 4 d auto
     ionic 5 p auto
     hydro 4 f 5.6
     ionic 5 s auto
#  "Second tier" - improvements: -4.95 meV to -0.45 meV
     hydro 5 g 7.4
#     hydro 4 d 4.4
#     hydro 3 p 3.3
#     hydro 6 h 10.4
#     hydro 5 s 4.9
#     hydro 5 f 13.2
#  "Third tier" - improvements: -0.38 meV to -0.11 meV
#     hydro 6 p 4.8
#     hydro 5 f 6
#     hydro 2 p 1.2
#     hydro 1 s 0.55
#     hydro 5 d 3.6   
#  "Fourth tier" - improvements: -0.12 meV and lower.
#     hydro 5 p 5.2
#     hydro 4 f 14.8
#     hydro 5 g 7.6
#     hydro 4 p 4.5
#     hydro 5 d 5.4
#     hydro 6 s 6.8   
################################################################################
#
#  FHI-aims code project
#  Volker Blum, 2018
#
#  Suggested "intermediate" defaults for Sn atom (to be pasted into control.in file)
#
#  2020/09/15 These "intermediate" settings are identical to past "tight" defaults
#             and differ only in the "g" function that is now included in "tight".
#
################################################################################
  species        Sn
#     global species definitions
    nucleus             50
    mass                118.710
#
    l_hartree           6
#
    cut_pot             4.0  2.0  1.0
    basis_dep_cutoff    1e-4
#
    radial_base         63 7.0
    radial_multiplier   2
    angular_grids specified
      division   0.1666  110
      division   0.9058  302
      division   0.9669  434
#      division   1.0315  590
#      division   1.0999  770
#      division   3.0459  974
#      outer_grid  974
      outer_grid  434
################################################################################
#
#  Definition of "minimal" basis
#
################################################################################
#     valence basis states
    valence      5  s   2.
    valence      5  p   2.
    valence      4  d  10.
#     ion occupancy
    ion_occ     5  s   1.
    ion_occ     5  p   1.
    ion_occ     4  d  10.
################################################################################
#
#  Suggested additional basis functions. For production calculations, 
#  uncomment them one after another (the most important basis functions are
#  listed first).
#
#  Constructed for dimers: 2.10 A, 2.40 A, 3.75 A, 3.50 A, 4.50 A
#
################################################################################
#  "First tier" - max. impr. -189.53  meV, min. impr. -22.71 meV
     hydro 2 p 1.3
     hydro 3 d 3.7
     hydro 4 f 7.4
     ionic 5 s auto
#  "Second tier" - max. impr. -15.73 meV, min. impr. -0.95 meV
#     hydro 5 g 10.4
#     hydro 4 p 6
#     hydro 4 f 20
#     hydro 3 d 4.3
#     hydro 6 h 14.4
#     hydro 4 f 5.6
#     hydro 3 s 2.4
#  "Third tier" - max. impr. -0.66 meV, min. impr. -0.09 meV
#     hydro 5 g 9.2
#     hydro 3 p 2.6
#     hydro 3 d 7.2
#     hydro 6 h 12.4
#     hydro 5 f 38
#     hydro 1 s 0.55  
#  "Fourth tier" - max. impr. -0.13 meV, min. impr. -0.04 meV
#     hydro 4 p 8.4
#     hydro 4 d 8
#     hydro 6 p 2.1   
#     hydro 5 f 8.6
#     hydro 1 s 4.2   
################################################################################
#
#  FHI-aims code project
#  Volker Blum, Fritz Haber Institute Berlin, 2009
#  Tong Zhu, Will Huhn and Volker Blum, Duke University 2018
#
#  Suggested "intermediate" defaults for Ba atom (to be pasted into control.in file)
#
#  Rb, Sr, Cs and Ba are very large atoms. This requires uncomfortably large
#  cut_pot radii (the high cut_pot values are especially costly for hybrid DFT
#  calculations, both regarding time and memory). Additionally, since they are
#  relatively heavy elements, high-accuracy basis set convergence actually
#  requires more radial functions than for their light-element counterparts.
#
#  Compared to the "tight" settings, the "intermediate" settings for Ba are
#  reduced in the following way:
#
#  - cut_pot from 6.0 Angstrom to 5.5 Angstrom
#  - the 5g function from tier2 is not used
#
#  The cut_pot value has a noticeable effect particularly for neutral situations
#  (the Ba dimer is a good example) and we were not comfortable with reducing it more.
#  ("intermediate" still implies high accuracy.) However, a comparison to the "light"
#  settings (which are not crazy) shows that further reductions are possible in many
#  situations, if the cut_pot value for Ba is the bottleneck. (Note that some internal
#  cutoffs in current FHI-aims are set according to the largest atom, and so in principle,
#  even a single Ba atom in a large structure can have a noticeable effect on memory and
#  speed.)
#
################################################################################
  species          Ba
#     global species definitions
    nucleus        56
    mass           137.327
#
    l_hartree      6
#
    cut_pot        5.5  2.0  1.0
    basis_dep_cutoff    1e-4
#
    radial_base    65  7.0
    radial_multiplier  2
    angular_grids specified
      division   0.6752  110
      division   0.9746  194
      division   1.2241  302
      division   1.3850  434
#      division   1.4734  590
#      division   1.6010  770
#      division   4.8366  974
#      outer_grid  974
      outer_grid  434
################################################################################
#
#  Definition of "minimal" basis
#
################################################################################
#     valence basis states
    valence      6  s   2.
    valence      5  p   6.
    valence      4  d  10.
#     ion occupancy
    ion_occ      6  s   1.
    ion_occ      5  p   6.
    ion_occ      4  d  10.
################################################################################
#
#  Suggested additional basis functions. For production calculations, 
#  uncomment them one after another (the most important basis functions are
#  listed first).
#
#  Constructed for dimers: 2.65, 3.00, 3.50, 4.40, 5.50 Ang
#
################################################################################
#  "First tier" - improvements: -1277.43 meV to -9.16 meV
     ionic 5 d auto
     ionic 4 f auto
     hydro 3 p 2.7
     hydro 4 s 3.3
#  "Second tier" - improvements: -64.04 (!) meV to -0.25 meV
     hydro 4 f 5.8  
#     hydro 5 g 7.4  
#     hydro 4 d 4.5  
#     hydro 6 h 11.2 
#     hydro 5 p 6.6  
#     hydro 2 s 3.2  
#  "Third tier" - max. impr. -1.16 meV, min. impr. -0.08 meV
#     hydro 5 f 7.4
#     hydro 5 g 10.8
#     hydro 4 d 2.3
#     hydro 4 p 3.7  
#     hydro 5 s 4.0  
#  Further functions - impr. -0.35 meV and below
#     hydro 5 d 3.5  
#     hydro 6 d 0.4  
#     hydro 2 p 2.5  
#     hydro 5 f 12   
#     hydro 6 d 8.8  
################################################################################
#
#  FHI-aims code project
#  Volker Blum, 2017
#
#  Suggested "intermediate" defaults for Pb atom (to be pasted into control.in file)
#
################################################################################
  species        Pb
#     global species definitions
    nucleus             82
    mass                207.2
#
    l_hartree           6
#
    cut_pot             4.0  2.0  1.0
    basis_dep_cutoff    1e-4
#
    radial_base         74 7.0
    radial_multiplier   2
    angular_grids specified
      division   0.1064  110
      division   0.1579  194
      division   0.2150  302
      division   1.0164  434
#      division   1.1544  590
#      division   1.1970  770
#      division   7.7779  974
#      outer_grid  974
      outer_grid  434
 ################################################################################
#
#  Definition of "minimal" basis
#
################################################################################
#     valence basis states
    valence      6  s   2.
    valence      6  p   2.
    valence      5  d  10.
    valence      4  f  14.
#     ion occupancy
    ion_occ     6  s    1.
    ion_occ     6  p    1.
    ion_occ     5  d   10.
    ion_occ     4  f   14.
################################################################################
#
#  Suggested additional basis functions. For production calculations, 
#  uncomment them one after another (the most important basis functions are
#  listed first).
#
#  Constructed for dimers: 2.225, 2.50, 2.88, 3.625, 4.50
#
################################################################################
#  "First tier" - max. impr. -156.54 meV, min. impr. -14.49 meV
     hydro 3 p 2.3
     hydro 4 f 7.6
     hydro 3 d 3.5
     for_aux    hydro 5 g 9.8
     hydro 3 s 3.2
#  "Second tier" - max. impr. -4.38  meV, min. impr. -0.30 meV
#     hydro 6 h 12.8
#     hydro 3 d 2.4
#     hydro 5 f 7.2
#     hydro 5 f 14.8
#     hydro 4 p 5.4
#     ionic 6 s auto 
#  "Third tier" - max. impr. -0.86 meV, min. impr. -0.16 meV
#     hydro 5 p 14.4
#     hydro 5 g 8.2
#     hydro 4 d 4.6
#     hydro 6 h 12.4
#     hydro 6 d 12.4
#     hydro 4 s 4
#     hydro 5 g 32.8
#     hydro 5 f 9.4
#  Further functions: -0.10 meV and below
#     hydro 5 f 17.6
#     hydro 7 p 19.6
